%Scalars
Students=40;
Disciplines=12;
Hospitals=3;
Duration=4;
Horizon=48;
Groups=2;
MaxDiscPerHosp=12;
%Data structures
DiscGroup = [1,1,1,1,1,1,2,2,2,2,2,2];

StudDiscGroup =[|
1, 0 |
6, 1 |
6, 2 |
0, 2 |
1, 1 |
5, 0 |
0, 4 |
6, 5 |
1, 2 |
1, 2 |
2, 3 |
4, 3 |
0, 4 |
1, 6 |
0, 2 |
0, 1 |
1, 0 |
1, 1 |
2, 1 |
1, 4 |
2, 2 |
2, 0 |
3, 3 |
4, 6 |
5, 1 |
3, 4 |
2, 6 |
0, 4 |
1, 6 |
1, 5 |
5, 2 |
3, 2 |
4, 5 |
3, 2 |
6, 2 |
3, 5 |
1, 1 |
4, 2 |
4, 4 |
3, 5 |];

AllowedDisc =[|
1, 1, 1, 1, 1, 1, 1, 1, 1, 1, 1, 1 |
1, 1, 1, 1, 1, 1, 1, 1, 1, 1, 1, 1 |
1, 1, 1, 1, 1, 1, 1, 1, 1, 1, 1, 1 |
1, 1, 1, 1, 1, 1, 1, 1, 1, 1, 1, 1 |
1, 1, 1, 1, 1, 1, 1, 1, 1, 1, 1, 1 |
1, 1, 1, 1, 1, 1, 1, 1, 1, 1, 1, 1 |
1, 1, 1, 1, 1, 1, 1, 1, 1, 1, 1, 1 |
1, 1, 1, 1, 1, 1, 1, 1, 1, 1, 1, 1 |
1, 1, 1, 1, 1, 1, 1, 1, 1, 1, 1, 1 |
1, 1, 1, 1, 1, 1, 1, 1, 1, 1, 1, 1 |
1, 1, 1, 1, 1, 1, 1, 1, 1, 1, 1, 1 |
1, 1, 1, 1, 1, 1, 1, 1, 1, 1, 1, 1 |
1, 1, 1, 1, 1, 1, 1, 1, 1, 1, 1, 1 |
1, 1, 1, 1, 1, 1, 1, 1, 1, 1, 1, 1 |
1, 1, 1, 1, 1, 1, 1, 1, 1, 1, 1, 1 |
1, 1, 1, 1, 1, 1, 1, 1, 1, 1, 1, 1 |
1, 1, 1, 1, 1, 1, 1, 1, 1, 1, 1, 1 |
1, 1, 1, 1, 1, 1, 1, 1, 1, 1, 1, 1 |
1, 1, 1, 1, 1, 1, 1, 1, 1, 1, 1, 1 |
1, 1, 1, 1, 1, 1, 1, 1, 1, 1, 1, 1 |
1, 1, 1, 1, 1, 1, 1, 1, 1, 1, 1, 1 |
1, 1, 1, 1, 1, 1, 1, 1, 1, 1, 1, 1 |
1, 1, 1, 1, 1, 1, 1, 1, 1, 1, 1, 1 |
1, 1, 1, 1, 1, 1, 1, 1, 1, 1, 1, 1 |
1, 1, 1, 1, 1, 1, 1, 1, 1, 1, 1, 1 |
1, 1, 1, 1, 1, 1, 1, 1, 1, 1, 1, 1 |
1, 1, 1, 1, 1, 1, 1, 1, 1, 1, 1, 1 |
1, 1, 1, 1, 1, 1, 1, 1, 1, 1, 1, 1 |
1, 1, 1, 1, 1, 1, 1, 1, 1, 1, 1, 1 |
1, 1, 1, 1, 1, 1, 1, 1, 1, 1, 1, 1 |
1, 1, 1, 1, 1, 1, 1, 1, 1, 1, 1, 1 |
1, 1, 1, 1, 1, 1, 1, 1, 1, 1, 1, 1 |
1, 1, 1, 1, 1, 1, 1, 1, 1, 1, 1, 1 |
1, 1, 1, 1, 1, 1, 1, 1, 1, 1, 1, 1 |
1, 1, 1, 1, 1, 1, 1, 1, 1, 1, 1, 1 |
1, 1, 1, 1, 1, 1, 1, 1, 1, 1, 1, 1 |
1, 1, 1, 1, 1, 1, 1, 1, 1, 1, 1, 1 |
1, 1, 1, 1, 1, 1, 1, 1, 1, 1, 1, 1 |
1, 1, 1, 1, 1, 1, 1, 1, 1, 1, 1, 1 |
1, 1, 1, 1, 1, 1, 1, 1, 1, 1, 1, 1 |];

Precededby =[|
0, 0, 0, 0, 0, 0, 0, 0, 0, 0, 0, 0 |
0, 0, 0, 0, 0, 0, 0, 0, 0, 0, 0, 0 |
1, 1, 0, 0, 0, 0, 0, 0, 0, 0, 0, 0 |
0, 0, 0, 0, 0, 0, 0, 0, 0, 0, 0, 0 |
1, 0, 0, 1, 0, 0, 0, 0, 0, 0, 0, 0 |
1, 1, 1, 1, 1, 0, 0, 0, 0, 0, 0, 0 |
0, 0, 0, 0, 0, 0, 0, 0, 0, 0, 0, 0 |
0, 0, 0, 0, 0, 0, 0, 0, 0, 0, 0, 0 |
0, 0, 0, 0, 0, 0, 0, 0, 0, 0, 0, 0 |
0, 0, 0, 0, 0, 0, 0, 0, 0, 0, 0, 0 |
0, 0, 0, 0, 0, 0, 0, 1, 0, 0, 0, 0 |
0, 0, 0, 0, 0, 0, 0, 0, 0, 0, 0, 0 |];

Availability =[|
1, 1, 1, 1, 0, 0, 0, 0, 0, 0, 0, 0, 0, 0, 0, 0, 0, 0, 0, 0, 0, 0, 0, 0, 0, 0, 0, 0, 1, 1, 1, 1, 1, 1, 1, 1, 1, 1, 1, 1, 1, 1, 1, 1, 0, 0, 0, 0 |
1, 1, 1, 1, 0, 0, 0, 0, 0, 0, 0, 0, 1, 1, 1, 1, 1, 1, 1, 1, 1, 1, 1, 1, 1, 1, 1, 1, 1, 1, 1, 1, 1, 1, 1, 1, 0, 0, 0, 0, 1, 1, 1, 1, 1, 1, 1, 1 |
1, 1, 1, 1, 1, 1, 1, 1, 1, 1, 1, 1, 1, 1, 1, 1, 1, 1, 1, 1, 1, 1, 1, 1, 1, 1, 1, 1, 1, 1, 1, 1, 1, 1, 1, 1, 0, 0, 0, 0, 1, 1, 1, 1, 1, 1, 1, 1 |
0, 0, 0, 0, 0, 0, 0, 0, 0, 0, 0, 0, 1, 1, 1, 1, 1, 1, 1, 1, 1, 1, 1, 1, 1, 1, 1, 1, 1, 1, 1, 1, 1, 1, 1, 1, 1, 1, 1, 1, 1, 1, 1, 1, 1, 1, 1, 1 |
1, 1, 1, 1, 1, 1, 1, 1, 0, 0, 0, 0, 1, 1, 1, 1, 1, 1, 1, 1, 0, 0, 0, 0, 1, 1, 1, 1, 0, 0, 0, 0, 1, 1, 1, 1, 1, 1, 1, 1, 0, 0, 0, 0, 0, 0, 0, 0 |
1, 1, 1, 1, 1, 1, 1, 1, 1, 1, 1, 1, 1, 1, 1, 1, 0, 0, 0, 0, 0, 0, 0, 0, 1, 1, 1, 1, 1, 1, 1, 1, 1, 1, 1, 1, 1, 1, 1, 1, 1, 1, 1, 1, 1, 1, 1, 1 |
0, 0, 0, 0, 1, 1, 1, 1, 1, 1, 1, 1, 0, 0, 0, 0, 0, 0, 0, 0, 1, 1, 1, 1, 1, 1, 1, 1, 1, 1, 1, 1, 0, 0, 0, 0, 1, 1, 1, 1, 1, 1, 1, 1, 1, 1, 1, 1 |
1, 1, 1, 1, 1, 1, 1, 1, 1, 1, 1, 1, 0, 0, 0, 0, 1, 1, 1, 1, 1, 1, 1, 1, 1, 1, 1, 1, 1, 1, 1, 1, 1, 1, 1, 1, 1, 1, 1, 1, 1, 1, 1, 1, 1, 1, 1, 1 |
0, 0, 0, 0, 1, 1, 1, 1, 1, 1, 1, 1, 1, 1, 1, 1, 0, 0, 0, 0, 1, 1, 1, 1, 0, 0, 0, 0, 1, 1, 1, 1, 0, 0, 0, 0, 1, 1, 1, 1, 1, 1, 1, 1, 0, 0, 0, 0 |
1, 1, 1, 1, 1, 1, 1, 1, 1, 1, 1, 1, 1, 1, 1, 1, 1, 1, 1, 1, 1, 1, 1, 1, 1, 1, 1, 1, 1, 1, 1, 1, 1, 1, 1, 1, 0, 0, 0, 0, 1, 1, 1, 1, 1, 1, 1, 1 |
0, 0, 0, 0, 1, 1, 1, 1, 1, 1, 1, 1, 0, 0, 0, 0, 1, 1, 1, 1, 0, 0, 0, 0, 1, 1, 1, 1, 1, 1, 1, 1, 0, 0, 0, 0, 1, 1, 1, 1, 1, 1, 1, 1, 1, 1, 1, 1 |
1, 1, 1, 1, 1, 1, 1, 1, 0, 0, 0, 0, 1, 1, 1, 1, 1, 1, 1, 1, 1, 1, 1, 1, 1, 1, 1, 1, 1, 1, 1, 1, 1, 1, 1, 1, 1, 1, 1, 1, 1, 1, 1, 1, 1, 1, 1, 1 |
0, 0, 0, 0, 0, 0, 0, 0, 1, 1, 1, 1, 1, 1, 1, 1, 1, 1, 1, 1, 1, 1, 1, 1, 1, 1, 1, 1, 1, 1, 1, 1, 1, 1, 1, 1, 0, 0, 0, 0, 1, 1, 1, 1, 0, 0, 0, 0 |
1, 1, 1, 1, 1, 1, 1, 1, 1, 1, 1, 1, 1, 1, 1, 1, 1, 1, 1, 1, 1, 1, 1, 1, 1, 1, 1, 1, 1, 1, 1, 1, 1, 1, 1, 1, 1, 1, 1, 1, 1, 1, 1, 1, 1, 1, 1, 1 |
1, 1, 1, 1, 0, 0, 0, 0, 1, 1, 1, 1, 0, 0, 0, 0, 1, 1, 1, 1, 0, 0, 0, 0, 0, 0, 0, 0, 1, 1, 1, 1, 1, 1, 1, 1, 1, 1, 1, 1, 1, 1, 1, 1, 1, 1, 1, 1 |
1, 1, 1, 1, 0, 0, 0, 0, 0, 0, 0, 0, 1, 1, 1, 1, 0, 0, 0, 0, 1, 1, 1, 1, 1, 1, 1, 1, 1, 1, 1, 1, 1, 1, 1, 1, 1, 1, 1, 1, 1, 1, 1, 1, 1, 1, 1, 1 |
1, 1, 1, 1, 1, 1, 1, 1, 0, 0, 0, 0, 0, 0, 0, 0, 1, 1, 1, 1, 0, 0, 0, 0, 1, 1, 1, 1, 1, 1, 1, 1, 1, 1, 1, 1, 0, 0, 0, 0, 1, 1, 1, 1, 1, 1, 1, 1 |
1, 1, 1, 1, 1, 1, 1, 1, 1, 1, 1, 1, 1, 1, 1, 1, 1, 1, 1, 1, 1, 1, 1, 1, 1, 1, 1, 1, 1, 1, 1, 1, 1, 1, 1, 1, 1, 1, 1, 1, 1, 1, 1, 1, 1, 1, 1, 1 |
1, 1, 1, 1, 1, 1, 1, 1, 1, 1, 1, 1, 0, 0, 0, 0, 1, 1, 1, 1, 0, 0, 0, 0, 1, 1, 1, 1, 0, 0, 0, 0, 1, 1, 1, 1, 1, 1, 1, 1, 1, 1, 1, 1, 0, 0, 0, 0 |
1, 1, 1, 1, 1, 1, 1, 1, 1, 1, 1, 1, 1, 1, 1, 1, 1, 1, 1, 1, 1, 1, 1, 1, 1, 1, 1, 1, 1, 1, 1, 1, 1, 1, 1, 1, 0, 0, 0, 0, 1, 1, 1, 1, 1, 1, 1, 1 |
1, 1, 1, 1, 1, 1, 1, 1, 0, 0, 0, 0, 0, 0, 0, 0, 1, 1, 1, 1, 1, 1, 1, 1, 0, 0, 0, 0, 0, 0, 0, 0, 0, 0, 0, 0, 0, 0, 0, 0, 1, 1, 1, 1, 1, 1, 1, 1 |
0, 0, 0, 0, 1, 1, 1, 1, 0, 0, 0, 0, 1, 1, 1, 1, 1, 1, 1, 1, 1, 1, 1, 1, 1, 1, 1, 1, 1, 1, 1, 1, 0, 0, 0, 0, 0, 0, 0, 0, 0, 0, 0, 0, 0, 0, 0, 0 |
1, 1, 1, 1, 1, 1, 1, 1, 1, 1, 1, 1, 0, 0, 0, 0, 1, 1, 1, 1, 1, 1, 1, 1, 0, 0, 0, 0, 1, 1, 1, 1, 1, 1, 1, 1, 1, 1, 1, 1, 1, 1, 1, 1, 1, 1, 1, 1 |
1, 1, 1, 1, 1, 1, 1, 1, 1, 1, 1, 1, 1, 1, 1, 1, 1, 1, 1, 1, 1, 1, 1, 1, 1, 1, 1, 1, 1, 1, 1, 1, 1, 1, 1, 1, 1, 1, 1, 1, 1, 1, 1, 1, 1, 1, 1, 1 |
1, 1, 1, 1, 1, 1, 1, 1, 1, 1, 1, 1, 1, 1, 1, 1, 1, 1, 1, 1, 0, 0, 0, 0, 1, 1, 1, 1, 0, 0, 0, 0, 1, 1, 1, 1, 0, 0, 0, 0, 1, 1, 1, 1, 1, 1, 1, 1 |
1, 1, 1, 1, 1, 1, 1, 1, 1, 1, 1, 1, 1, 1, 1, 1, 1, 1, 1, 1, 1, 1, 1, 1, 0, 0, 0, 0, 1, 1, 1, 1, 0, 0, 0, 0, 0, 0, 0, 0, 1, 1, 1, 1, 1, 1, 1, 1 |
0, 0, 0, 0, 0, 0, 0, 0, 1, 1, 1, 1, 1, 1, 1, 1, 0, 0, 0, 0, 0, 0, 0, 0, 1, 1, 1, 1, 1, 1, 1, 1, 1, 1, 1, 1, 1, 1, 1, 1, 1, 1, 1, 1, 1, 1, 1, 1 |
1, 1, 1, 1, 1, 1, 1, 1, 1, 1, 1, 1, 1, 1, 1, 1, 1, 1, 1, 1, 1, 1, 1, 1, 1, 1, 1, 1, 1, 1, 1, 1, 1, 1, 1, 1, 0, 0, 0, 0, 0, 0, 0, 0, 1, 1, 1, 1 |
1, 1, 1, 1, 1, 1, 1, 1, 1, 1, 1, 1, 1, 1, 1, 1, 0, 0, 0, 0, 1, 1, 1, 1, 1, 1, 1, 1, 1, 1, 1, 1, 0, 0, 0, 0, 0, 0, 0, 0, 1, 1, 1, 1, 0, 0, 0, 0 |
1, 1, 1, 1, 1, 1, 1, 1, 1, 1, 1, 1, 1, 1, 1, 1, 1, 1, 1, 1, 1, 1, 1, 1, 1, 1, 1, 1, 1, 1, 1, 1, 1, 1, 1, 1, 1, 1, 1, 1, 0, 0, 0, 0, 1, 1, 1, 1 |
1, 1, 1, 1, 1, 1, 1, 1, 1, 1, 1, 1, 1, 1, 1, 1, 1, 1, 1, 1, 0, 0, 0, 0, 1, 1, 1, 1, 1, 1, 1, 1, 1, 1, 1, 1, 1, 1, 1, 1, 1, 1, 1, 1, 1, 1, 1, 1 |
0, 0, 0, 0, 1, 1, 1, 1, 0, 0, 0, 0, 1, 1, 1, 1, 1, 1, 1, 1, 1, 1, 1, 1, 0, 0, 0, 0, 1, 1, 1, 1, 1, 1, 1, 1, 1, 1, 1, 1, 0, 0, 0, 0, 1, 1, 1, 1 |
1, 1, 1, 1, 0, 0, 0, 0, 1, 1, 1, 1, 1, 1, 1, 1, 1, 1, 1, 1, 1, 1, 1, 1, 1, 1, 1, 1, 1, 1, 1, 1, 1, 1, 1, 1, 1, 1, 1, 1, 1, 1, 1, 1, 1, 1, 1, 1 |
1, 1, 1, 1, 1, 1, 1, 1, 1, 1, 1, 1, 0, 0, 0, 0, 1, 1, 1, 1, 1, 1, 1, 1, 1, 1, 1, 1, 0, 0, 0, 0, 0, 0, 0, 0, 0, 0, 0, 0, 1, 1, 1, 1, 1, 1, 1, 1 |
1, 1, 1, 1, 1, 1, 1, 1, 1, 1, 1, 1, 1, 1, 1, 1, 1, 1, 1, 1, 1, 1, 1, 1, 1, 1, 1, 1, 1, 1, 1, 1, 0, 0, 0, 0, 1, 1, 1, 1, 1, 1, 1, 1, 1, 1, 1, 1 |
0, 0, 0, 0, 1, 1, 1, 1, 1, 1, 1, 1, 1, 1, 1, 1, 1, 1, 1, 1, 1, 1, 1, 1, 0, 0, 0, 0, 1, 1, 1, 1, 1, 1, 1, 1, 1, 1, 1, 1, 1, 1, 1, 1, 1, 1, 1, 1 |
1, 1, 1, 1, 1, 1, 1, 1, 1, 1, 1, 1, 1, 1, 1, 1, 0, 0, 0, 0, 1, 1, 1, 1, 0, 0, 0, 0, 1, 1, 1, 1, 1, 1, 1, 1, 1, 1, 1, 1, 1, 1, 1, 1, 1, 1, 1, 1 |
1, 1, 1, 1, 1, 1, 1, 1, 0, 0, 0, 0, 1, 1, 1, 1, 1, 1, 1, 1, 1, 1, 1, 1, 1, 1, 1, 1, 1, 1, 1, 1, 1, 1, 1, 1, 1, 1, 1, 1, 1, 1, 1, 1, 1, 1, 1, 1 |
1, 1, 1, 1, 1, 1, 1, 1, 0, 0, 0, 0, 1, 1, 1, 1, 0, 0, 0, 0, 1, 1, 1, 1, 1, 1, 1, 1, 1, 1, 1, 1, 0, 0, 0, 0, 1, 1, 1, 1, 1, 1, 1, 1, 1, 1, 1, 1 |
0, 0, 0, 0, 1, 1, 1, 1, 1, 1, 1, 1, 1, 1, 1, 1, 1, 1, 1, 1, 1, 1, 1, 1, 1, 1, 1, 1, 1, 1, 1, 1, 1, 1, 1, 1, 1, 1, 1, 1, 1, 1, 1, 1, 0, 0, 0, 0 |];

Ability =
 array3d(1..Students,1..Hospitals,1..Disciplines,[
1, 1, 1, 0, 1, 1, 1, 1, 1, 1, 1, 1 ,
1, 1, 1, 1, 1, 1, 1, 1, 1, 1, 1, 1 ,
1, 1, 1, 1, 1, 0, 1, 1, 1, 1, 1, 1 ,
1, 1, 1, 1, 1, 1, 1, 1, 1, 1, 1, 1 ,
1, 1, 1, 1, 1, 1, 1, 1, 1, 1, 1, 1 ,
1, 1, 1, 1, 1, 1, 1, 1, 1, 1, 1, 0 ,
1, 1, 0, 1, 0, 1, 1, 1, 1, 1, 1, 1 ,
1, 1, 1, 1, 1, 1, 0, 1, 1, 1, 1, 1 ,
1, 1, 1, 1, 1, 1, 1, 1, 1, 1, 1, 1 ,
1, 1, 1, 1, 1, 1, 1, 1, 1, 1, 1, 1 ,
1, 1, 1, 1, 1, 1, 1, 1, 1, 1, 1, 1 ,
1, 1, 1, 1, 1, 1, 1, 1, 1, 1, 1, 0 ,
1, 1, 1, 1, 1, 1, 1, 1, 1, 1, 1, 1 ,
1, 1, 1, 1, 1, 1, 1, 1, 1, 0, 1, 1 ,
1, 1, 1, 1, 1, 1, 1, 1, 1, 1, 1, 1 ,
1, 1, 1, 0, 1, 1, 0, 1, 1, 1, 1, 1 ,
1, 1, 1, 1, 1, 1, 1, 1, 1, 1, 1, 1 ,
1, 1, 1, 1, 1, 1, 0, 1, 1, 1, 1, 1 ,
1, 1, 1, 1, 1, 1, 1, 1, 1, 1, 1, 1 ,
1, 1, 1, 1, 1, 1, 1, 1, 1, 1, 1, 1 ,
1, 1, 1, 1, 1, 1, 1, 1, 1, 1, 1, 1 ,
1, 1, 1, 1, 1, 1, 1, 1, 1, 1, 1, 1 ,
1, 1, 1, 1, 1, 1, 1, 1, 1, 1, 1, 1 ,
1, 1, 1, 1, 1, 0, 1, 1, 1, 1, 1, 1 ,
1, 1, 1, 1, 1, 1, 1, 0, 1, 1, 1, 1 ,
1, 1, 1, 1, 1, 1, 1, 1, 1, 1, 1, 1 ,
1, 1, 1, 1, 1, 1, 1, 1, 1, 1, 1, 1 ,
1, 1, 1, 1, 1, 1, 1, 0, 1, 1, 1, 1 ,
1, 1, 1, 1, 1, 1, 1, 1, 1, 1, 1, 1 ,
1, 1, 1, 1, 1, 1, 1, 1, 1, 1, 1, 1 ,
1, 1, 1, 1, 1, 1, 1, 1, 0, 1, 1, 1 ,
1, 1, 1, 1, 1, 1, 1, 1, 1, 1, 1, 1 ,
1, 1, 1, 1, 1, 1, 1, 1, 1, 1, 1, 1 ,
1, 1, 1, 1, 1, 1, 1, 0, 1, 1, 1, 1 ,
1, 1, 1, 1, 1, 1, 0, 1, 1, 1, 1, 1 ,
1, 1, 1, 1, 1, 1, 1, 1, 1, 1, 1, 1 ,
1, 1, 0, 1, 1, 1, 1, 1, 1, 1, 1, 1 ,
1, 1, 1, 1, 1, 1, 0, 1, 1, 1, 1, 1 ,
1, 1, 1, 1, 1, 1, 1, 1, 1, 0, 1, 1 ,
1, 1, 1, 1, 1, 1, 1, 1, 0, 1, 1, 1 ,
1, 1, 1, 1, 1, 0, 1, 1, 1, 1, 1, 1 ,
1, 1, 1, 1, 1, 1, 1, 1, 1, 1, 1, 1 ,
1, 1, 1, 1, 1, 1, 0, 1, 1, 1, 1, 1 ,
1, 0, 1, 1, 1, 1, 1, 1, 1, 1, 1, 1 ,
1, 1, 1, 1, 1, 1, 1, 1, 1, 1, 1, 1 ,
1, 1, 1, 1, 1, 1, 1, 1, 1, 1, 1, 1 ,
1, 1, 1, 1, 1, 1, 1, 1, 1, 1, 1, 1 ,
1, 1, 1, 1, 1, 1, 1, 1, 1, 0, 1, 1 ,
1, 1, 1, 1, 1, 1, 1, 1, 1, 1, 1, 1 ,
1, 1, 1, 0, 1, 1, 1, 1, 1, 0, 1, 1 ,
1, 1, 1, 1, 1, 1, 1, 1, 1, 1, 1, 1 ,
1, 1, 0, 1, 1, 1, 1, 1, 1, 1, 1, 1 ,
1, 1, 1, 1, 1, 1, 1, 1, 0, 1, 1, 1 ,
1, 1, 1, 1, 0, 1, 1, 1, 1, 1, 1, 1 ,
1, 1, 1, 1, 1, 1, 1, 1, 1, 1, 1, 1 ,
1, 0, 1, 1, 1, 1, 1, 1, 1, 1, 1, 1 ,
0, 1, 1, 1, 1, 1, 1, 1, 1, 1, 1, 1 ,
1, 1, 1, 0, 1, 1, 1, 1, 1, 1, 1, 0 ,
1, 1, 1, 1, 1, 1, 1, 1, 1, 1, 1, 1 ,
1, 1, 1, 1, 1, 1, 0, 1, 1, 1, 1, 1 ,
1, 1, 1, 1, 1, 1, 1, 1, 1, 1, 0, 1 ,
1, 1, 1, 1, 1, 1, 1, 1, 1, 1, 1, 1 ,
1, 1, 1, 1, 1, 1, 1, 1, 1, 1, 1, 1 ,
1, 1, 1, 1, 1, 1, 1, 1, 1, 1, 1, 1 ,
1, 1, 1, 1, 1, 1, 1, 1, 1, 1, 1, 1 ,
1, 1, 1, 1, 1, 1, 1, 1, 1, 1, 1, 1 ,
1, 1, 1, 1, 1, 1, 1, 1, 0, 0, 1, 0 ,
1, 1, 1, 1, 1, 1, 1, 1, 1, 1, 1, 1 ,
1, 1, 1, 1, 1, 1, 1, 1, 1, 1, 1, 1 ,
1, 1, 1, 0, 1, 1, 1, 1, 1, 1, 1, 1 ,
1, 1, 0, 1, 1, 1, 1, 1, 1, 1, 0, 1 ,
1, 1, 1, 1, 1, 1, 0, 1, 1, 1, 1, 1 ,
1, 1, 1, 1, 1, 1, 0, 1, 1, 1, 1, 1 ,
1, 1, 1, 0, 1, 1, 1, 1, 1, 1, 1, 1 ,
1, 1, 1, 1, 1, 1, 1, 1, 1, 1, 1, 1 ,
1, 1, 1, 1, 1, 1, 1, 1, 1, 1, 1, 1 ,
1, 1, 1, 1, 1, 1, 1, 1, 1, 1, 1, 1 ,
1, 1, 1, 1, 1, 1, 0, 1, 1, 1, 1, 1 ,
1, 1, 1, 1, 1, 1, 1, 1, 1, 1, 1, 1 ,
1, 1, 1, 1, 1, 1, 1, 1, 1, 1, 0, 1 ,
1, 1, 1, 1, 1, 1, 1, 1, 1, 1, 1, 0 ,
1, 1, 1, 1, 1, 1, 1, 1, 0, 1, 1, 1 ,
1, 1, 0, 1, 1, 0, 1, 0, 1, 1, 1, 1 ,
1, 1, 1, 1, 1, 1, 1, 1, 1, 1, 0, 1 ,
1, 1, 1, 1, 1, 1, 1, 1, 1, 1, 1, 1 ,
1, 1, 1, 1, 0, 1, 1, 1, 0, 1, 1, 1 ,
1, 1, 1, 1, 1, 0, 1, 1, 1, 1, 1, 1 ,
1, 1, 1, 1, 1, 1, 1, 1, 1, 1, 1, 1 ,
1, 1, 1, 1, 1, 1, 1, 1, 0, 1, 1, 1 ,
1, 1, 1, 1, 1, 1, 1, 1, 1, 1, 1, 1 ,
1, 1, 1, 1, 0, 1, 1, 1, 0, 1, 1, 1 ,
1, 1, 1, 1, 1, 1, 1, 1, 0, 1, 1, 0 ,
1, 1, 1, 1, 1, 1, 1, 1, 1, 1, 1, 1 ,
1, 1, 1, 1, 1, 1, 1, 1, 1, 1, 1, 1 ,
1, 1, 1, 1, 1, 1, 1, 1, 1, 1, 1, 1 ,
1, 1, 1, 1, 1, 1, 1, 1, 1, 1, 1, 1 ,
1, 1, 1, 1, 1, 1, 1, 1, 1, 1, 1, 1 ,
1, 1, 1, 1, 1, 1, 1, 1, 1, 1, 0, 1 ,
1, 1, 1, 1, 1, 1, 1, 1, 1, 1, 1, 1 ,
1, 1, 1, 1, 1, 1, 1, 1, 1, 0, 1, 1 ,
1, 1, 1, 1, 0, 0, 1, 1, 1, 1, 1, 1 ,
1, 1, 1, 1, 1, 1, 1, 1, 1, 1, 1, 1 ,
1, 1, 1, 1, 1, 1, 1, 1, 1, 0, 1, 0 ,
1, 1, 1, 1, 1, 1, 1, 1, 1, 1, 0, 1 ,
1, 1, 0, 1, 1, 1, 1, 1, 1, 1, 1, 1 ,
1, 1, 1, 1, 1, 0, 1, 1, 0, 1, 1, 1 ,
1, 1, 1, 1, 1, 1, 1, 0, 1, 1, 1, 1 ,
1, 1, 1, 1, 1, 1, 1, 1, 1, 1, 0, 1 ,
1, 1, 1, 1, 1, 1, 1, 1, 1, 1, 1, 1 ,
1, 0, 1, 1, 1, 1, 1, 1, 1, 1, 1, 1 ,
1, 1, 1, 0, 1, 1, 1, 1, 1, 1, 1, 1 ,
1, 1, 1, 1, 1, 1, 1, 1, 1, 1, 1, 1 ,
1, 1, 1, 1, 1, 1, 1, 1, 1, 1, 1, 0 ,
1, 1, 1, 1, 1, 1, 1, 1, 1, 1, 1, 1 ,
1, 1, 1, 1, 1, 1, 1, 1, 1, 1, 1, 1 ,
1, 1, 1, 1, 1, 1, 1, 0, 1, 1, 1, 1 ,
1, 1, 1, 1, 1, 1, 1, 1, 1, 1, 1, 1 ,
1, 1, 1, 1, 1, 1, 1, 1, 1, 1, 1, 1 ,
1, 1, 1, 1, 1, 1, 1, 1, 1, 1, 1, 1 ,
0, 1, 1, 1, 1, 1, 1, 1, 1, 1, 1, 1]);

MaxPosHosp =
 array3d(1..Hospitals, 1..Disciplines, 1..Horizon,[
7, 7, 7, 7, 9, 9, 9, 9, 9, 9, 9, 9, 12, 12, 12, 12, 10, 10, 10, 10, 13, 13, 13, 13, 12, 12, 12, 12, 8, 8, 8, 8, 13, 13, 13, 13, 10, 10, 10, 10, 11, 11, 11, 11, 8, 8, 8, 8 ,
13, 13, 13, 13, 7, 7, 7, 7, 11, 11, 11, 11, 9, 9, 9, 9, 7, 7, 7, 7, 13, 13, 13, 13, 8, 8, 8, 8, 11, 11, 11, 11, 13, 13, 13, 13, 6, 6, 6, 6, 10, 10, 10, 10, 10, 10, 10, 10 ,
7, 7, 7, 7, 7, 7, 7, 11, 11, 11, 11, 10, 10, 10, 10, 10, 10, 10, 10, 13, 13, 13, 13, 8, 8, 8, 8, 7, 7, 7, 7, 13, 13, 13, 13, 12, 12, 12, 12, 13, 13, 13, 13, 12, 12, 12, 12, 9 ,
9, 9, 9, 11, 11, 11, 11, 7, 7, 7, 7, 8, 8, 8, 8, 11, 11, 11, 11, 7, 7, 7, 7, 12, 12, 12, 12, 13, 13, 13, 13, 7, 7, 7, 7, 10, 10, 10, 10, 7, 7, 7, 7, 9, 9, 9, 9, 8 ,
11, 11, 11, 9, 9, 9, 9, 13, 13, 13, 13, 7, 7, 7, 7, 9, 9, 9, 9, 9, 9, 9, 9, 12, 12, 12, 12, 12, 12, 12, 12, 6, 6, 6, 6, 8, 8, 8, 8, 13, 13, 13, 13, 13, 13, 13, 13, 8 ,
11, 11, 11, 6, 6, 6, 6, 11, 11, 11, 11, 13, 13, 13, 13, 11, 11, 11, 11, 8, 8, 8, 8, 7, 7, 7, 7, 13, 13, 13, 13, 6, 6, 6, 6, 7, 7, 7, 7, 11, 11, 11, 11, 12, 12, 12, 12, 10 ,
9, 9, 9, 9, 11, 11, 11, 11, 8, 8, 8, 8, 9, 9, 9, 9, 7, 7, 7, 7, 8, 8, 8, 8, 12, 12, 12, 12, 10, 10, 10, 10, 6, 6, 6, 6, 6, 6, 6, 6, 12, 12, 12, 12, 6, 6, 6, 6 ,
12, 12, 12, 12, 7, 7, 7, 7, 6, 6, 6, 6, 9, 9, 9, 9, 8, 8, 8, 8, 10, 10, 10, 10, 12, 12, 12, 12, 6, 6, 6, 6, 13, 13, 13, 13, 7, 7, 7, 7, 12, 12, 12, 12, 11, 11, 11, 11 ,
6, 13, 13, 13, 13, 9, 9, 9, 9, 12, 12, 12, 12, 11, 11, 11, 11, 11, 11, 11, 11, 6, 6, 6, 6, 12, 12, 12, 12, 7, 7, 7, 7, 10, 10, 10, 10, 10, 10, 10, 10, 9, 9, 9, 9, 7, 7, 7 ,
10, 10, 10, 8, 8, 8, 8, 7, 7, 7, 7, 12, 12, 12, 12, 11, 11, 11, 11, 11, 11, 11, 11, 8, 8, 8, 8, 7, 7, 7, 7, 10, 10, 10, 10, 13, 13, 13, 13, 9, 9, 9, 9, 6, 6, 6, 6, 11 ,
11, 11, 13, 13, 13, 13, 9, 9, 9, 9, 8, 8, 8, 8, 7, 7, 7, 7, 8, 8, 8, 8, 9, 9, 9, 9, 10, 10, 10, 10, 10, 10, 10, 10, 11, 11, 11, 11, 12, 12, 12, 12, 12, 12, 12, 12, 9, 9 ,
11, 11, 11, 10, 10, 10, 10, 7, 7, 7, 7, 13, 13, 13, 13, 12, 12, 12, 12, 9, 9, 9, 9, 11, 11, 11, 11, 12, 12, 12, 12, 9, 9, 9, 9, 11, 11, 11, 11, 10, 10, 10, 10, 11, 11, 11, 11, 6 ,
10, 10, 7, 7, 7, 7, 6, 6, 6, 6, 7, 7, 7, 7, 10, 10, 10, 10, 11, 11, 11, 11, 7, 7, 7, 7, 6, 6, 6, 6, 12, 12, 12, 12, 8, 8, 8, 8, 6, 6, 6, 6, 6, 6, 6, 6, 13, 13 ,
10, 10, 10, 10, 12, 12, 12, 12, 8, 8, 8, 8, 10, 10, 10, 10, 8, 8, 8, 8, 7, 7, 7, 7, 9, 9, 9, 9, 9, 9, 9, 9, 12, 12, 12, 12, 6, 6, 6, 6, 10, 10, 10, 10, 11, 11, 11, 11 ,
8, 8, 8, 8, 6, 6, 6, 6, 9, 9, 9, 9, 13, 13, 13, 13, 8, 8, 8, 8, 11, 11, 11, 11, 11, 11, 11, 11, 11, 11, 11, 11, 6, 6, 6, 6, 12, 12, 12, 12, 10, 10, 10, 10, 13, 13, 13, 13 ,
12, 12, 11, 11, 11, 11, 12, 12, 12, 12, 9, 9, 9, 9, 8, 8, 8, 8, 9, 9, 9, 9, 10, 10, 10, 10, 10, 10, 10, 10, 10, 10, 10, 10, 12, 12, 12, 12, 9, 9, 9, 9, 6, 6, 6, 6, 11, 11 ,
8, 8, 8, 8, 11, 11, 11, 11, 7, 7, 7, 7, 11, 11, 11, 11, 13, 13, 13, 13, 6, 6, 6, 6, 13, 13, 13, 13, 11, 11, 11, 11, 8, 8, 8, 8, 7, 7, 7, 7, 6, 6, 6, 6, 10, 10, 10, 10 ,
6, 6, 8, 8, 8, 8, 12, 12, 12, 12, 8, 8, 8, 8, 7, 7, 7, 7, 10, 10, 10, 10, 12, 12, 12, 12, 13, 13, 13, 13, 12, 12, 12, 12, 12, 12, 12, 12, 9, 9, 9, 9, 7, 7, 7, 7, 7, 7 ,
7, 7, 7, 7, 7, 7, 10, 10, 10, 10, 10, 10, 10, 10, 6, 6, 6, 6, 12, 12, 12, 12, 9, 9, 9, 9, 10, 10, 10, 10, 7, 7, 7, 7, 7, 7, 7, 7, 10, 10, 10, 10, 9, 9, 9, 9, 12, 12 ,
10, 10, 7, 7, 7, 7, 13, 13, 13, 13, 6, 6, 6, 6, 8, 8, 8, 8, 10, 10, 10, 10, 6, 6, 6, 6, 8, 8, 8, 8, 9, 9, 9, 9, 9, 9, 9, 9, 6, 6, 6, 6, 8, 8, 8, 8, 8, 8 ,
8, 6, 6, 6, 6, 13, 13, 13, 13, 10, 10, 10, 10, 13, 13, 13, 13, 10, 10, 10, 10, 7, 7, 7, 7, 10, 10, 10, 10, 8, 8, 8, 8, 10, 10, 10, 10, 11, 11, 11, 11, 7, 7, 7, 7, 12, 12, 12 ,
11, 10, 10, 10, 10, 11, 11, 11, 11, 10, 10, 10, 10, 10, 10, 10, 10, 6, 6, 6, 6, 7, 7, 7, 7, 7, 7, 7, 7, 6, 6, 6, 6, 7, 7, 7, 7, 11, 11, 11, 11, 12, 12, 12, 12, 6, 6, 6 ,
10, 11, 11, 11, 11, 13, 13, 13, 13, 10, 10, 10, 10, 10, 10, 10, 10, 8, 8, 8, 8, 6, 6, 6, 6, 7, 7, 7, 7, 10, 10, 10, 10, 9, 9, 9, 9, 13, 13, 13, 13, 12, 12, 12, 12, 12, 12, 12 ,
7, 7, 7, 7, 10, 10, 10, 10, 11, 11, 11, 11, 9, 9, 9, 9, 9, 9, 9, 9, 8, 8, 8, 8, 8, 8, 8, 8, 11, 11, 11, 11, 10, 10, 10, 10, 6, 6, 6, 6, 8, 8, 8, 8, 11, 11, 11, 11 ,
10, 10, 11, 11, 11, 11, 12, 12, 12, 12, 9, 9, 9, 9, 12, 12, 12, 12, 6, 6, 6, 6, 9, 9, 9, 9, 11, 11, 11, 11, 13, 13, 13, 13, 9, 9, 9, 9, 8, 8, 8, 8, 10, 10, 10, 10, 8, 8 ,
9, 9, 12, 12, 12, 12, 9, 9, 9, 9, 12, 12, 12, 12, 12, 12, 12, 12, 12, 12, 12, 12, 8, 8, 8, 8, 10, 10, 10, 10, 12, 12, 12, 12, 6, 6, 6, 6, 6, 6, 6, 6, 13, 13, 13, 13, 7, 7 ,
11, 12, 12, 12, 12, 13, 13, 13, 13, 13, 13, 13, 13, 12, 12, 12, 12, 12, 12, 12, 12, 6, 6, 6, 6, 11, 11, 11, 11, 11, 11, 11, 11, 13, 13, 13, 13, 10, 10, 10, 10, 7, 7, 7, 7, 11, 11, 11 ,
10, 10, 10, 10, 12, 12, 12, 12, 13, 13, 13, 13, 9, 9, 9, 9, 11, 11, 11, 11, 10, 10, 10, 10, 10, 10, 10, 10, 12, 12, 12, 12, 11, 11, 11, 11, 12, 12, 12, 12, 7, 7, 7, 7, 6, 6, 6, 6 ,
6, 6, 6, 6, 7, 7, 7, 7, 6, 6, 6, 6, 9, 9, 9, 9, 12, 12, 12, 12, 6, 6, 6, 6, 6, 6, 6, 6, 10, 10, 10, 10, 7, 7, 7, 7, 9, 9, 9, 9, 6, 6, 6, 6, 6, 6, 6, 6 ,
11, 11, 11, 11, 7, 7, 7, 7, 7, 7, 7, 7, 6, 6, 6, 6, 9, 9, 9, 9, 12, 12, 12, 12, 8, 8, 8, 8, 11, 11, 11, 11, 13, 13, 13, 13, 8, 8, 8, 8, 12, 12, 12, 12, 11, 11, 11, 11 ,
7, 7, 7, 7, 7, 7, 12, 12, 12, 12, 13, 13, 13, 13, 12, 12, 12, 12, 7, 7, 7, 7, 6, 6, 6, 6, 6, 6, 6, 6, 8, 8, 8, 8, 6, 6, 6, 6, 7, 7, 7, 7, 9, 9, 9, 9, 7, 7 ,
12, 12, 9, 9, 9, 9, 9, 9, 9, 9, 11, 11, 11, 11, 11, 11, 11, 11, 10, 10, 10, 10, 7, 7, 7, 7, 13, 13, 13, 13, 13, 13, 13, 13, 8, 8, 8, 8, 11, 11, 11, 11, 10, 10, 10, 10, 12, 12 ,
10, 6, 6, 6, 6, 13, 13, 13, 13, 7, 7, 7, 7, 9, 9, 9, 9, 8, 8, 8, 8, 8, 8, 8, 8, 12, 12, 12, 12, 7, 7, 7, 7, 8, 8, 8, 8, 7, 7, 7, 7, 6, 6, 6, 6, 7, 7, 7 ,
10, 8, 8, 8, 8, 12, 12, 12, 12, 10, 10, 10, 10, 13, 13, 13, 13, 11, 11, 11, 11, 12, 12, 12, 12, 13, 13, 13, 13, 9, 9, 9, 9, 9, 9, 9, 9, 11, 11, 11, 11, 6, 6, 6, 6, 10, 10, 10 ,
13, 9, 9, 9, 9, 13, 13, 13, 13, 9, 9, 9, 9, 13, 13, 13, 13, 13, 13, 13, 13, 7, 7, 7, 7, 7, 7, 7, 7, 6, 6, 6, 6, 7, 7, 7, 7, 13, 13, 13, 13, 6, 6, 6, 6, 7, 7, 7 ,
12, 12, 12, 12, 10, 10, 10, 10, 13, 13, 13, 13, 12, 12, 12, 12, 8, 8, 8, 8, 7, 7, 7, 7, 6, 6, 6, 6, 6, 6, 6, 6, 12, 12, 12, 12, 9, 9, 9, 9, 8, 8, 8, 8, 10, 10, 10, 10]);

MinPosHosp =
 array3d(1..Hospitals, 1..Disciplines, 1..Horizon,[
0, 0, 0, 0, 0, 0, 0, 0, 0, 0, 0, 0, 0, 0, 0, 0, 0, 0, 0, 0, 0, 0, 0, 0, 0, 0, 0, 0, 0, 0, 0, 0, 0, 0, 0, 0, 0, 0, 0, 0, 0, 0, 0, 0, 0, 0, 0, 0 ,
0, 0, 0, 0, 0, 0, 0, 0, 0, 0, 0, 0, 0, 0, 0, 0, 0, 0, 0, 0, 0, 0, 0, 0, 0, 0, 0, 0, 0, 0, 0, 0, 0, 0, 0, 0, 0, 0, 0, 0, 0, 0, 0, 0, 0, 0, 0, 0 ,
0, 0, 0, 0, 0, 0, 0, 0, 0, 0, 0, 0, 0, 0, 0, 0, 0, 0, 0, 0, 0, 0, 0, 0, 0, 0, 0, 0, 0, 0, 0, 0, 0, 0, 0, 0, 0, 0, 0, 0, 0, 0, 0, 0, 0, 0, 0, 0 ,
0, 0, 0, 0, 0, 0, 0, 0, 0, 0, 0, 0, 0, 0, 0, 0, 0, 0, 0, 0, 0, 0, 0, 0, 0, 0, 0, 0, 0, 0, 0, 0, 0, 0, 0, 0, 0, 0, 0, 0, 0, 0, 0, 0, 0, 0, 0, 0 ,
0, 0, 0, 0, 0, 0, 0, 0, 0, 0, 0, 0, 0, 0, 0, 0, 0, 0, 0, 0, 0, 0, 0, 0, 0, 0, 0, 0, 0, 0, 0, 0, 0, 0, 0, 0, 0, 0, 0, 0, 0, 0, 0, 0, 0, 0, 0, 0 ,
0, 0, 0, 0, 0, 0, 0, 0, 0, 0, 0, 0, 0, 0, 0, 0, 0, 0, 0, 0, 0, 0, 0, 0, 0, 0, 0, 0, 0, 0, 0, 0, 0, 0, 0, 0, 0, 0, 0, 0, 0, 0, 0, 0, 0, 0, 0, 0 ,
0, 0, 0, 0, 0, 0, 0, 0, 0, 0, 0, 0, 0, 0, 0, 0, 0, 0, 0, 0, 0, 0, 0, 0, 0, 0, 0, 0, 0, 0, 0, 0, 0, 0, 0, 0, 0, 0, 0, 0, 0, 0, 0, 0, 0, 0, 0, 0 ,
0, 0, 0, 0, 0, 0, 0, 0, 0, 0, 0, 0, 0, 0, 0, 0, 0, 0, 0, 0, 0, 0, 0, 0, 0, 0, 0, 0, 0, 0, 0, 0, 0, 0, 0, 0, 0, 0, 0, 0, 0, 0, 0, 0, 0, 0, 0, 0 ,
0, 0, 0, 0, 0, 0, 0, 0, 0, 0, 0, 0, 0, 0, 0, 0, 0, 0, 0, 0, 0, 0, 0, 0, 0, 0, 0, 0, 0, 0, 0, 0, 0, 0, 0, 0, 0, 0, 0, 0, 0, 0, 0, 0, 0, 0, 0, 0 ,
0, 0, 0, 0, 0, 0, 0, 0, 0, 0, 0, 0, 0, 0, 0, 0, 0, 0, 0, 0, 0, 0, 0, 0, 0, 0, 0, 0, 0, 0, 0, 0, 0, 0, 0, 0, 0, 0, 0, 0, 0, 0, 0, 0, 0, 0, 0, 0 ,
0, 0, 0, 0, 0, 0, 0, 0, 0, 0, 0, 0, 0, 0, 0, 0, 0, 0, 0, 0, 0, 0, 0, 0, 0, 0, 0, 0, 0, 0, 0, 0, 0, 0, 0, 0, 0, 0, 0, 0, 0, 0, 0, 0, 0, 0, 0, 0 ,
0, 0, 0, 0, 0, 0, 0, 0, 0, 0, 0, 0, 0, 0, 0, 0, 0, 0, 0, 0, 0, 0, 0, 0, 0, 0, 0, 0, 0, 0, 0, 0, 0, 0, 0, 0, 0, 0, 0, 0, 0, 0, 0, 0, 0, 0, 0, 0 ,
0, 0, 0, 1, 0, 1, 0, 0, 0, 0, 0, 0, 0, 0, 0, 1, 0, 0, 0, 1, 1, 0, 0, 0, 0, 0, 0, 1, 0, 0, 0, 0, 0, 0, 0, 0, 0, 1, 0, 0, 0, 0, 0, 0, 0, 0, 0, 0 ,
0, 1, 0, 0, 0, 0, 0, 0, 0, 0, 0, 0, 0, 0, 0, 0, 0, 0, 0, 0, 0, 0, 0, 1, 0, 0, 1, 0, 0, 0, 0, 0, 0, 0, 0, 0, 0, 0, 0, 0, 0, 0, 0, 0, 1, 0, 0, 0 ,
0, 0, 0, 0, 0, 0, 0, 0, 1, 0, 0, 0, 0, 1, 0, 0, 0, 0, 0, 1, 0, 0, 0, 0, 0, 0, 0, 1, 0, 0, 0, 0, 0, 0, 0, 0, 0, 0, 0, 0, 1, 0, 0, 0, 1, 1, 0, 0 ,
0, 0, 0, 0, 0, 0, 0, 0, 0, 0, 0, 0, 0, 0, 0, 0, 1, 1, 0, 0, 0, 0, 0, 0, 0, 0, 1, 0, 0, 0, 0, 0, 0, 0, 0, 1, 0, 0, 0, 0, 0, 1, 0, 0, 0, 0, 0, 0 ,
0, 0, 0, 0, 0, 0, 0, 0, 0, 0, 0, 0, 1, 0, 0, 0, 0, 0, 0, 0, 0, 0, 0, 0, 0, 1, 0, 0, 0, 0, 0, 0, 0, 1, 0, 0, 0, 0, 0, 1, 0, 0, 0, 0, 0, 0, 0, 0 ,
0, 0, 0, 0, 0, 0, 0, 0, 0, 0, 0, 0, 0, 0, 0, 0, 0, 0, 0, 0, 0, 0, 1, 0, 0, 1, 0, 1, 0, 0, 1, 0, 0, 0, 0, 1, 0, 0, 0, 0, 0, 0, 0, 0, 0, 1, 0, 0 ,
0, 0, 0, 0, 0, 0, 0, 1, 1, 0, 0, 0, 0, 0, 1, 0, 0, 0, 0, 0, 1, 1, 0, 0, 0, 0, 0, 0, 0, 1, 0, 0, 0, 0, 0, 0, 0, 0, 0, 0, 0, 0, 0, 0, 0, 0, 0, 0 ,
0, 0, 0, 0, 0, 0, 0, 0, 0, 0, 0, 0, 0, 0, 0, 0, 0, 0, 0, 0, 0, 1, 0, 0, 0, 0, 0, 0, 1, 0, 1, 0, 0, 0, 0, 0, 0, 0, 0, 0, 0, 0, 0, 0, 0, 0, 0, 1 ,
0, 0, 0, 0, 0, 0, 0, 0, 0, 0, 0, 0, 0, 0, 0, 0, 0, 0, 0, 0, 0, 0, 0, 0, 0, 0, 0, 1, 0, 0, 0, 0, 0, 0, 0, 0, 0, 0, 0, 0, 0, 0, 0, 0, 0, 0, 1, 0 ,
0, 0, 0, 0, 0, 0, 0, 0, 0, 0, 0, 0, 0, 0, 0, 0, 0, 0, 0, 0, 0, 0, 1, 0, 0, 0, 0, 0, 0, 0, 0, 0, 0, 0, 0, 0, 0, 1, 0, 1, 0, 0, 0, 0, 0, 1, 1, 0 ,
0, 0, 0, 0, 0, 1, 1, 0, 0, 0, 0, 0, 0, 0, 0, 0, 0, 0, 0, 0, 0, 1, 0, 1, 1, 1, 0, 0, 0, 0, 0, 0, 0, 1, 0, 0, 0, 0, 0, 0, 0, 0, 0, 0, 0, 0, 0, 0 ,
0, 0, 0, 0, 0, 0, 0, 0, 0, 0, 0, 0, 0, 1, 0, 0, 0, 1, 0, 0, 0, 0, 0, 0, 0, 0, 1, 0, 0, 1, 0, 0, 0, 0, 0, 0, 0, 0, 0, 0, 0, 0, 0, 0, 0, 0, 1, 0 ,
0, 0, 0, 0, 0, 0, 0, 0, 0, 0, 0, 0, 0, 0, 0, 0, 0, 0, 0, 0, 0, 0, 0, 0, 0, 0, 0, 0, 0, 0, 0, 0, 0, 0, 0, 0, 0, 0, 0, 0, 0, 0, 0, 0, 0, 0, 0, 0 ,
0, 0, 0, 0, 0, 0, 0, 0, 0, 0, 0, 0, 0, 0, 0, 0, 0, 0, 0, 0, 0, 0, 0, 0, 0, 0, 0, 0, 0, 0, 0, 0, 0, 0, 0, 0, 0, 0, 0, 0, 0, 0, 0, 0, 0, 0, 0, 0 ,
0, 0, 0, 0, 0, 0, 0, 0, 0, 0, 0, 0, 0, 0, 0, 0, 0, 0, 0, 0, 0, 0, 0, 0, 0, 0, 0, 0, 0, 0, 0, 0, 0, 0, 0, 0, 0, 0, 0, 0, 0, 0, 0, 0, 0, 0, 0, 0 ,
0, 0, 0, 0, 0, 0, 0, 0, 0, 0, 0, 0, 0, 0, 0, 0, 0, 0, 0, 0, 0, 0, 0, 0, 0, 0, 0, 0, 0, 0, 0, 0, 0, 0, 0, 0, 0, 0, 0, 0, 0, 0, 0, 0, 0, 0, 0, 0 ,
0, 0, 0, 0, 0, 0, 0, 0, 0, 0, 0, 0, 0, 0, 0, 0, 0, 0, 0, 0, 0, 0, 0, 0, 0, 0, 0, 0, 0, 0, 0, 0, 0, 0, 0, 0, 0, 0, 0, 0, 0, 0, 0, 0, 0, 0, 0, 0 ,
0, 0, 0, 0, 0, 0, 0, 0, 0, 0, 0, 0, 0, 0, 0, 0, 0, 0, 0, 0, 0, 0, 0, 0, 0, 0, 0, 0, 0, 0, 0, 0, 0, 0, 0, 0, 0, 0, 0, 0, 0, 0, 0, 0, 0, 0, 0, 0 ,
0, 0, 0, 0, 0, 0, 0, 0, 0, 0, 0, 0, 0, 0, 0, 0, 0, 0, 0, 0, 0, 0, 0, 0, 0, 0, 0, 0, 0, 0, 0, 0, 0, 0, 0, 0, 0, 0, 0, 0, 0, 0, 0, 0, 0, 0, 0, 0 ,
0, 0, 0, 0, 0, 0, 0, 0, 0, 0, 0, 0, 0, 0, 0, 0, 0, 0, 0, 0, 0, 0, 0, 0, 0, 0, 0, 0, 0, 0, 0, 0, 0, 0, 0, 0, 0, 0, 0, 0, 0, 0, 0, 0, 0, 0, 0, 0 ,
0, 0, 0, 0, 0, 0, 0, 0, 0, 0, 0, 0, 0, 0, 0, 0, 0, 0, 0, 0, 0, 0, 0, 0, 0, 0, 0, 0, 0, 0, 0, 0, 0, 0, 0, 0, 0, 0, 0, 0, 0, 0, 0, 0, 0, 0, 0, 0 ,
0, 0, 0, 0, 0, 0, 0, 0, 0, 0, 0, 0, 0, 0, 0, 0, 0, 0, 0, 0, 0, 0, 0, 0, 0, 0, 0, 0, 0, 0, 0, 0, 0, 0, 0, 0, 0, 0, 0, 0, 0, 0, 0, 0, 0, 0, 0, 0 ,
0, 0, 0, 0, 0, 0, 0, 0, 0, 0, 0, 0, 0, 0, 0, 0, 0, 0, 0, 0, 0, 0, 0, 0, 0, 0, 0, 0, 0, 0, 0, 0, 0, 0, 0, 0, 0, 0, 0, 0, 0, 0, 0, 0, 0, 0, 0, 0 ,
0, 0, 0, 0, 0, 0, 0, 0, 0, 0, 0, 0, 0, 0, 0, 0, 0, 0, 0, 0, 0, 0, 0, 0, 0, 0, 0, 0, 0, 0, 0, 0, 0, 0, 0, 0, 0, 0, 0, 0, 0, 0, 0, 0, 0, 0, 0, 0]);

%W_disc W_hosp W_change W_wait
WeightPref=[|
2,3,-2,-3 |
1,1,-1,-2 |
1,3,-3,-2 |
1,2,-2,-2 |
2,2,-3,-3 |
2,1,-1,-3 |
3,1,-1,-3 |
1,2,-2,-2 |
2,2,-2,-3 |
1,1,-2,-3 |
1,1,-1,-2 |
3,1,-1,-3 |
1,3,-1,-2 |
2,2,-3,-1 |
2,3,-2,-2 |
1,3,-2,-3 |
1,2,-1,-2 |
3,3,-2,-1 |
1,3,-2,-3 |
2,2,-2,-2 |
1,1,-2,-1 |
2,1,-1,-1 |
3,1,-1,-3 |
3,2,-3,-1 |
2,2,-2,-2 |
1,2,-2,-2 |
2,1,-1,-1 |
1,2,-3,-2 |
2,2,-3,-2 |
1,3,-1,-1 |
2,1,-1,-3 |
2,3,-2,-1 |
2,1,-2,-2 |
3,1,-3,-2 |
3,3,-3,-2 |
1,1,-2,-3 |
2,1,-3,-1 |
1,2,-3,-1 |
1,1,-3,-3 |
1,1,-3,-2 |];

PrefStudDisc =[|
4, 2, 5, 4, 3, 1, 3, 1, 5, 4, 2, 2 |
1, 4, 4, 4, 1, 2, 5, 5, 5, 3, 1, 4 |
2, 5, 5, 1, 5, 5, 4, 1, 4, 5, 2, 1 |
1, 3, 5, 4, 3, 3, 4, 1, 2, 3, 5, 3 |
4, 4, 4, 1, 5, 1, 3, 3, 4, 3, 1, 2 |
3, 1, 3, 2, 5, 1, 1, 4, 1, 2, 1, 3 |
5, 5, 5, 5, 3, 3, 4, 4, 5, 1, 3, 4 |
1, 5, 1, 1, 3, 5, 4, 3, 1, 2, 3, 3 |
3, 3, 5, 1, 1, 3, 5, 1, 5, 5, 2, 5 |
3, 2, 2, 5, 5, 2, 1, 4, 4, 2, 1, 2 |
3, 2, 2, 5, 1, 5, 1, 5, 5, 3, 3, 3 |
4, 2, 3, 4, 4, 2, 1, 2, 4, 2, 5, 4 |
2, 1, 2, 3, 5, 4, 5, 5, 5, 3, 3, 5 |
1, 3, 3, 3, 1, 3, 2, 3, 1, 2, 4, 2 |
2, 5, 3, 3, 1, 4, 2, 5, 2, 5, 5, 3 |
4, 1, 4, 1, 4, 3, 5, 2, 3, 5, 2, 5 |
4, 1, 4, 3, 3, 2, 4, 1, 2, 5, 4, 2 |
5, 2, 5, 5, 4, 3, 5, 2, 2, 5, 5, 1 |
4, 4, 5, 3, 5, 2, 4, 3, 1, 5, 1, 2 |
1, 4, 5, 4, 2, 2, 3, 5, 5, 1, 1, 3 |
2, 3, 2, 4, 2, 2, 1, 5, 2, 5, 4, 5 |
2, 2, 1, 2, 4, 4, 3, 2, 2, 5, 5, 1 |
3, 2, 2, 3, 2, 2, 1, 4, 5, 2, 2, 5 |
1, 2, 5, 4, 5, 3, 2, 4, 4, 1, 2, 3 |
1, 2, 4, 5, 5, 4, 5, 2, 4, 5, 4, 4 |
1, 3, 2, 2, 5, 5, 1, 1, 3, 5, 1, 4 |
4, 4, 1, 5, 1, 1, 2, 1, 1, 5, 2, 1 |
1, 4, 3, 5, 2, 1, 5, 4, 5, 4, 3, 5 |
4, 3, 1, 3, 1, 2, 3, 4, 1, 1, 5, 1 |
2, 4, 1, 5, 4, 4, 3, 5, 3, 1, 4, 2 |
3, 3, 2, 1, 1, 2, 3, 3, 1, 4, 3, 2 |
1, 2, 5, 2, 4, 2, 1, 4, 1, 3, 2, 2 |
3, 4, 4, 4, 3, 3, 5, 3, 4, 3, 3, 3 |
2, 5, 4, 1, 2, 4, 4, 1, 1, 3, 5, 3 |
2, 2, 4, 3, 3, 5, 5, 5, 4, 5, 3, 3 |
3, 4, 5, 4, 2, 4, 5, 3, 4, 4, 2, 5 |
4, 3, 2, 1, 5, 3, 5, 4, 3, 4, 2, 5 |
5, 5, 2, 1, 2, 3, 4, 5, 5, 5, 3, 2 |
5, 5, 5, 2, 1, 4, 5, 3, 4, 5, 3, 2 |
2, 2, 1, 3, 3, 2, 4, 1, 5, 5, 2, 3 |];

PrefStudHosp =[|
2, 5, 4 |
4, 1, 3 |
3, 1, 1 |
1, 3, 1 |
3, 2, 1 |
4, 5, 1 |
2, 2, 2 |
4, 5, 3 |
4, 2, 1 |
5, 3, 1 |
1, 4, 3 |
5, 5, 4 |
2, 1, 1 |
3, 1, 1 |
3, 3, 4 |
4, 4, 2 |
3, 2, 4 |
1, 5, 1 |
1, 5, 4 |
2, 4, 4 |
4, 5, 3 |
3, 2, 1 |
2, 5, 3 |
3, 4, 2 |
2, 4, 4 |
1, 5, 1 |
1, 4, 5 |
2, 1, 1 |
3, 4, 3 |
4, 4, 4 |
3, 4, 3 |
2, 5, 3 |
1, 5, 3 |
4, 4, 2 |
4, 1, 4 |
5, 5, 5 |
5, 1, 3 |
2, 3, 5 |
1, 3, 2 |
5, 3, 5 |];

ManPref=[2,2,3,2,5,3,5,0,5,4,5,1];

%% Instance features:
%Scalars :40 , 12 , 4 , 48 , 3 , 1
%Occupancy: 0.0510129
%Excess: 0.0741627
%Busyness: 0.435417
%Density: 0.121212
%Depth: 2
